
******************************************************************************
This program contains Ipopt, a library for large-scale nonlinear optimization.
 Ipopt is released as open source code under the Eclipse Public License (EPL).
         For more information visit http://projects.coin-or.org/Ipopt

This version of Ipopt was compiled from source code available at
    https://github.com/IDAES/Ipopt as part of the Institute for the Design of
    Advanced Energy Systems Process Systems Engineering Framework (IDAES PSE
    Framework) Copyright (c) 2018-2019. See https://github.com/IDAES/idaes-pse.

This version of Ipopt was compiled using HSL, a collection of Fortran codes
    for large-scale scientific computation.  All technical papers, sales and
    publicity material resulting from use of the HSL codes within IPOPT must
    contain the following acknowledgement:
        HSL, a collection of Fortran codes for large-scale scientific
        computation. See http://www.hsl.rl.ac.uk.
******************************************************************************

This is Ipopt version 3.13.2, running with linear solver ma27.

Number of nonzeros in equality constraint Jacobian...:      808
Number of nonzeros in inequality constraint Jacobian.:        0
Number of nonzeros in Lagrangian Hessian.............:      702

Total number of variables............................:      351
                     variables with only lower bounds:      108
                variables with lower and upper bounds:      189
                     variables with only upper bounds:        0
Total number of equality constraints.................:      350
Total number of inequality constraints...............:        0
        inequality constraints with only lower bounds:        0
   inequality constraints with lower and upper bounds:        0
        inequality constraints with only upper bounds:        0

iter    objective    inf_pr   inf_du lg(mu)  ||d||  lg(rg) alpha_du alpha_pr  ls
   0  0.0000000e+00 4.54e-01 1.11e-15  -1.0 0.00e+00    -  0.00e+00 0.00e+00   0
   1  6.7253869e+00 2.24e+00 4.41e+04  -1.0 2.60e+05    -  5.42e-01 6.10e-01h  1
   2  7.6253717e+00 2.02e+00 4.00e+04  -1.0 1.27e+05    -  8.28e-01 8.29e-02h  1
   3  7.9365111e+00 1.96e+00 3.89e+04  -1.0 1.67e+05    -  8.34e-01 2.85e-02h  1
   4  2.5515139e+01 1.42e-01 5.37e+03  -1.0 1.65e+05    -  8.43e-01 9.90e-01h  1
   5  2.8053678e+01 5.82e-03 1.68e+03  -1.0 1.67e+04    -  9.39e-01 9.90e-01h  1
   6  2.8099461e+01 7.66e-05 1.92e+01  -1.0 2.93e+02    -  9.90e-01 9.90e-01h  1
   7  2.8101119e+01 7.42e-05 2.76e+07  -1.0 8.45e+02    -  9.90e-01 3.09e-02f  6
   8  2.8102834e+01 7.31e-05 5.62e+07  -1.0 1.75e+03    -  9.94e-01 1.55e-02f  7
   9  2.8212142e+01 5.19e-05 8.63e+05  -1.0 1.75e+03    -  1.00e+00 9.90e-01H  1
iter    objective    inf_pr   inf_du lg(mu)  ||d||  lg(rg) alpha_du alpha_pr  ls
  10  2.8212817e+01 5.71e-07 3.01e+07  -1.0 1.07e+01    -  1.00e+00 9.90e-01h  1
  11  2.8212820e+01 5.72e-09 3.01e+09  -1.0 5.74e-02    -  1.00e+00 9.90e-01h  1
  12  2.8212820e+01 5.77e-11 3.01e+11  -1.0 5.74e-04    -  1.00e+00 9.90e-01h  1
In iteration 12, 27 Slacks too small, adjusting variable bounds
  13  2.8212820e+01 3.49e-12 3.01e+13  -1.0 5.73e-06    -  1.00e+00 9.90e-01h  1
  14  2.8212820e+01 1.91e-12 6.76e-01  -1.0 5.50e-07    -  1.00e+00 1.00e+00H  1
  15  2.8212817e+01 2.78e-12 3.07e+13  -9.0 2.04e+03    -  9.98e-01 2.68e-05f 16
  16  2.8212815e+01 3.26e-12 3.07e+13  -9.0 1.80e+03    -  9.99e-01 1.52e-05f 17
  17  2.8212812e+01 2.75e-12 3.07e+13  -9.0 1.79e+03    -  1.00e+00 3.05e-05f 16
  18  2.8212811e+01 2.73e-12 3.07e+13  -9.0 1.79e+03    -  1.00e+00 3.81e-06f 19
  19  2.8212811e+01 1.71e-12 3.07e+13  -9.0 1.79e+03    -  1.00e+00 3.81e-06f 19
iter    objective    inf_pr   inf_du lg(mu)  ||d||  lg(rg) alpha_du alpha_pr  ls
  20  2.8099615e+01 7.81e-04 5.71e+05  -9.0 1.79e+03    -  1.00e+00 1.00e+00f  1
  21  2.8098720e+01 9.62e-09 1.99e-04  -9.0 1.28e+01    -  1.00e+00 1.00e+00h  1
  22  2.8098720e+01 4.45e-12 5.82e-11  -9.0 1.14e-04    -  1.00e+00 1.00e+00h  1

Number of Iterations....: 22

                                   (scaled)                 (unscaled)
Objective...............:   2.8098720331198578e+01    2.8098720331198578e+01
Dual infeasibility......:   5.8207660913467407e-11    5.8207660913467407e-11
Constraint violation....:   4.4533265963764279e-12    4.4533265963764279e-12
Complementarity.........:   9.0909090909497583e-10    9.0909090909497583e-10
Overall NLP error.......:   5.9133679335598422e-12    9.0909090909497583e-10


Number of objective function evaluations             = 140
Number of objective gradient evaluations             = 23
Number of equality constraint evaluations            = 140
Number of inequality constraint evaluations          = 0
Number of equality constraint Jacobian evaluations   = 23
Number of inequality constraint Jacobian evaluations = 0
Number of Lagrangian Hessian evaluations             = 22
Total CPU secs in IPOPT (w/o function evaluations)   =      0.054
Total CPU secs in NLP function evaluations           =      1.040

EXIT: Optimal Solution Found.
